
******************************************************************************
This program contains Ipopt, a library for large-scale nonlinear optimization.
 Ipopt is released as open source code under the Eclipse Public License (EPL).
         For more information visit http://projects.coin-or.org/Ipopt
******************************************************************************

This is Ipopt version 3.12.6, running with linear solver ma57.

Number of nonzeros in equality constraint Jacobian...:   132651
Number of nonzeros in inequality constraint Jacobian.:        0
Number of nonzeros in Lagrangian Hessian.............:    70278

Reallocating memory for MA57: lfact (31614101)
Total number of variables............................:     2652
                     variables with only lower bounds:        0
                variables with lower and upper bounds:        0
                     variables with only upper bounds:        0
Total number of equality constraints.................:     1326
Total number of inequality constraints...............:        0
        inequality constraints with only lower bounds:        0
   inequality constraints with lower and upper bounds:        0
        inequality constraints with only upper bounds:        0

iter    objective    inf_pr   inf_du lg(mu)  ||d||  lg(rg) alpha_du alpha_pr  ls
   0  1.1201000e+04 0.00e+00 3.84e+00  -1.0 0.00e+00    -  0.00e+00 0.00e+00   0
   1  8.5323979e+03 7.52e-04 3.35e+00  -1.0 3.35e+00   0.0 1.00e+00 1.00e+00f  1
   2  4.1609335e+03 5.33e-02 7.20e+00  -1.0 6.99e+00  -0.5 1.00e+00 1.00e+00f  1
   3  3.0620322e+03 8.78e-03 2.00e+00  -1.0 2.25e+00  -0.1 1.00e+00 1.00e+00f  1
   4  1.4246786e+03 7.12e-02 3.08e+00  -1.0 4.56e+00  -0.5 1.00e+00 1.00e+00f  1
   5  9.9916064e+02 1.17e-02 1.14e+00  -1.0 1.45e+00  -0.1 1.00e+00 1.00e+00f  1
   6  4.4008820e+02 6.01e-02 1.24e+00  -1.0 2.88e+00  -0.6 1.00e+00 1.00e+00f  1
   7  7.6797574e+01 1.36e-01 1.39e+00  -1.0 3.18e+00  -1.1 1.00e+00 1.00e+00f  1
   8  1.0621005e+01 3.60e-02 3.86e-01  -1.0 1.69e+00  -1.5 1.00e+00 1.00e+00f  1
   9  2.8711824e+00 6.62e-02 6.42e-02  -1.7 4.52e-01  -2.0 1.00e+00 1.00e+00h  1
iter    objective    inf_pr   inf_du lg(mu)  ||d||  lg(rg) alpha_du alpha_pr  ls
  10  4.0582755e-01 2.86e-01 5.57e-02  -2.5 4.05e-01  -2.5 1.00e+00 1.00e+00h  1
  11  7.6112451e-03 2.28e-02 8.50e-03  -2.5 1.29e-01  -3.0 1.00e+00 1.00e+00h  1
  12  8.8682562e-06 5.52e-04 4.29e-04  -3.8 4.12e-02  -3.4 1.00e+00 1.00e+00h  1
  13  3.7022195e-11 1.10e-06 5.85e-07  -5.7 1.27e-03  -3.9 1.00e+00 1.00e+00h  1
  14  1.9425833e-18 4.92e-12 1.09e-10  -8.6 2.68e-06  -4.4 1.00e+00 1.00e+00h  1

Number of Iterations....: 14

                                   (scaled)                 (unscaled)
Objective...............:   1.4346996506816525e-19    1.9425833270229575e-18
Dual infeasibility......:   1.0943988707316549e-10    1.4818160709706607e-09
Constraint violation....:   4.9176912542137075e-12    4.9176912542137075e-12
Complementarity.........:   0.0000000000000000e+00    0.0000000000000000e+00
Overall NLP error.......:   1.0943988707316549e-10    1.4818160709706607e-09


Number of objective function evaluations             = 15
Number of objective gradient evaluations             = 15
Number of equality constraint evaluations            = 15
Number of inequality constraint evaluations          = 0
Number of equality constraint Jacobian evaluations   = 15
Number of inequality constraint Jacobian evaluations = 0
Number of Lagrangian Hessian evaluations             = 14
Total CPU secs in IPOPT (w/o function evaluations)   =     77.213
Total CPU secs in NLP function evaluations           =      0.210

EXIT: Optimal Solution Found.

************************ CUTEst statistics ************************


 Package used            :  IPOPT
 Problem                 :  EIGENC2   
 # variables             =            2652
 # constraints           =            1326
 # objective functions   =        0.3100000E+02
 # objective gradients   =        0.1600000E+02
 # objective Hessians    =        0.1500000E+02
 # Hessian-vector prdct  =        0.0000000E+00
 # constraints functions =        0.3200000E+02
 # constraints gradients =        0.1700000E+02
 # constraints Hessians  =        0.1500000E+02
 Exit code               =               0
 Final f                 =   0.1942583E-17
 Set up time             =            0.31 seconds
 Solve time              =          104.19 seconds


******************************************************************

System Time =      35.1870002747 s.
